CMPL model generation - running

CMPL version: 1.11.0
Authors: Thomas Schleiff, Mike Steglich
Distributed under the GPLv3 

create model instance ...
write model instance ...
CMPL model generation - finished

Solver - running


Welcome to IBM(R) ILOG(R) CPLEX(R) Interactive Optimizer 12.7.1.0
  with Simplex, Mixed Integer & Barrier Optimizers
5725-A06 5725-A29 5724-Y48 5724-Y49 5724-Y54 5724-Y55 5655-Y21
Copyright IBM Corp. 1988, 2017.  All Rights Reserved.

Type 'help' for a list of available commands.
Type 'help' followed by a command name for more
information on commands.

CPLEX> Specified objective sense: MINIMIZE
Selected objective  name:  line[1]
Selected RHS        name:  RHS
Selected bound      name:  BOUND
Problem '/tmp/cmpl.T24002.mps' read.
Read time = 0.06 sec. (10.12 ticks)
CPLEX> CPXPARAM_Read_APIEncoding                        "UTF-8"
Tried aggregator 3 times.
MIP Presolve eliminated 24022 rows and 37614 columns.
MIP Presolve modified 425 coefficients.
Aggregator did 754 substitutions.
Reduced MIP has 3146 rows, 4087 columns, and 12099 nonzeros.
Reduced MIP has 3877 binaries, 0 generals, 0 SOSs, and 0 indicators.
Presolve time = 0.06 sec. (50.18 ticks)
Found incumbent of value 773.444049 after 0.11 sec. (77.06 ticks)
Probing fixed 11 vars, tightened 0 bounds.
Probing time = 0.01 sec. (5.28 ticks)
Tried aggregator 1 time.
MIP Presolve eliminated 0 rows and 11 columns.
MIP Presolve modified 58 coefficients.
Reduced MIP has 3146 rows, 4076 columns, and 12077 nonzeros.
Reduced MIP has 4076 binaries, 0 generals, 0 SOSs, and 0 indicators.
Presolve time = 0.01 sec. (10.21 ticks)
Probing time = 0.01 sec. (2.83 ticks)
Clique table members: 7445.
MIP emphasis: balance optimality and feasibility.
MIP search method: dynamic search.
Parallel mode: none, using 1 thread.
Root relaxation solution time = 0.01 sec. (5.96 ticks)

        Nodes                                         Cuts/
   Node  Left     Objective  IInf  Best Integer    Best Bound    ItCnt     Gap

*     0+    0                          773.4440      -30.0895           103.89%
      0     0      172.5762    11      773.4440      172.5762      152   77.69%
*     0+    0                          188.4725      172.5762             8.43%
*     0+    0                          172.8277      172.5762             0.15%
      0     0      172.7786     1      172.8277      Cuts: 13      163    0.03%
*     0+    0                          172.8014      172.7786             0.01%
*     0+    0                          172.7951      172.7786             0.01%
      0     0        cutoff            172.7951      172.7786      163    0.01%
Elapsed time = 0.18 sec. (131.73 ticks, tree = 0.01 MB, solutions = 5)

GUB cover cuts applied:  1
Clique cuts applied:  1
Cover cuts applied:  7
Gomory fractional cuts applied:  4

Root node processing (before b&c):
  Real time             =    0.19 sec. (134.12 ticks)
Sequential b&c:
  Real time             =    0.00 sec. (0.00 ticks)
                          ------------
Total (root+branch&cut) =    0.19 sec. (134.12 ticks)

Solution pool: 5 solutions saved.

MIP - Integer optimal solution:  Objective =  1.7279513700e+02
Solution time =    0.19 sec.  Iterations = 163  Nodes = 0
Deterministic time = 134.25 ticks  (715.13 ticks/sec)

CPLEX> Incumbent solution written to file '/tmp/cmpl.T24002.gsol'.
CPLEX> 
CMPL: Time used for model generation: 1 seconds
CMPL: Time used for solving the model: 1 seconds


Solution written to ASCII file: results/output_generated_conf_0.4/2016-10-03-5/fair-nonlinear.sol

Solver - finished
